\* Problem: SC205 *\

Minimize
 COST: - C0000003

Subject To
 R0000000: + 2 C0000000 + C0000001 + 1.5 C0000002 <= 200
 R0000001: + C0000000 + 2 C0000001 + 1.5 C0000002 <= 100
 R0000002: 0 C0000000 <= 0
 R0000003: + C0000003 - C0000004 = 0
 R0000004: - C0000000 + C0000005 = 0
 R0000005: - C0000001 + C0000006 = 0
 R0000006: - C0000002 + C0000007 = 0
 R0000007: - C0000005 + C0000008 <= 0
 R0000008: - C0000006 + C0000009 <= 0
 R0000009: - C0000007 + C0000010 <= 0
 R0000010: - C0000008 + 2 C0000011 + C0000012 + 1.5 C0000013 <= 200
 R0000011: - C0000009 + C0000011 + 2 C0000012 + 1.5 C0000013 <= 100
 R0000012: + C0000004 - C0000010 <= 0
 R0000013: + 1.1 C0000003 - C0000014 = 0
 R0000014: + C0000004 + C0000014 - C0000015 = 0
 R0000015: - C0000005 - C0000011 + C0000016 = 0
 R0000016: - C0000006 - C0000012 + C0000017 = 0
 R0000017: - C0000007 - C0000013 + C0000018 = 0
 R0000018: - C0000016 + C0000019 <= 0
 R0000019: - C0000017 + C0000020 <= 0
 R0000020: - C0000018 + C0000021 <= 0
 R0000021: - C0000019 + 2 C0000022 + C0000023 + 1.5 C0000024 <= 200
 R0000022: - C0000020 + C0000022 + 2 C0000023 + 1.5 C0000024 <= 100
 R0000023: + C0000015 - C0000021 <= 0
 R0000024: + 1.1 C0000014 - C0000025 <= 0
 R0000025: + C0000015 + C0000025 - C0000026 <= 0
 R0000026: - C0000016 - C0000022 + C0000027 <= 0
 R0000027: - C0000017 - C0000023 + C0000028 <= 0
 R0000028: - C0000018 - C0000024 + C0000029 <= 0
 R0000029: - C0000027 + C0000030 <= 0
 R0000030: - C0000028 + C0000031 <= 0
 R0000031: - C0000029 + C0000032 <= 0
 R0000032: - C0000030 + 2 C0000033 + C0000034 + 1.5 C0000035 <= 200
 R0000033: - C0000031 + C0000033 + 2 C0000034 + 1.5 C0000035 <= 100
 R0000034: + C0000026 - C0000032 <= 0
 R0000035: + 1.1 C0000003 - C0000036 = 0
 R0000036: + C0000004 + C0000036 - C0000037 = 0
 R0000037: - C0000005 - C0000011 + C0000038 = 0
 R0000038: - C0000006 - C0000012 + C0000039 = 0
 R0000039: - C0000007 - C0000013 + C0000040 = 0
 R0000040: - C0000038 + C0000041 <= 0
 R0000041: - C0000039 + C0000042 <= 0
 R0000042: - C0000040 + C0000043 <= 0
 R0000043: - C0000041 + 2 C0000044 + C0000045 + 1.5 C0000046 <= 200
 R0000044: - C0000042 + C0000044 + 2 C0000045 + 1.5 C0000046 <= 100
 R0000045: + C0000037 - C0000043 <= 0
 R0000046: + 1.1 C0000036 - C0000047 <= 0
 R0000047: + C0000037 + C0000047 - C0000048 <= 0
 R0000048: - C0000038 - C0000044 + C0000049 <= 0
 R0000049: - C0000039 - C0000045 + C0000050 <= 0
 R0000050: - C0000040 - C0000046 + C0000051 <= 0
 R0000051: - C0000049 + C0000052 <= 0
 R0000052: - C0000050 + C0000053 <= 0
 R0000053: - C0000051 + C0000054 <= 0
 R0000054: - C0000052 + 2 C0000055 + C0000056 + 1.5 C0000057 <= 200
 R0000055: - C0000053 + C0000055 + 2 C0000056 + 1.5 C0000057 <= 75
 R0000056: + C0000048 - C0000054 <= 0
 R0000057: + 1.1 C0000003 - C0000058 = 0
 R0000058: + C0000004 + C0000058 - C0000059 = 0
 R0000059: - C0000005 - C0000011 + C0000060 = 0
 R0000060: - C0000006 - C0000012 + C0000061 = 0
 R0000061: - C0000007 - C0000013 + C0000062 = 0
 R0000062: - C0000060 + C0000063 <= 0
 R0000063: - C0000061 + C0000064 <= 0
 R0000064: - C0000062 + C0000065 <= 0
 R0000065: - C0000063 + 2 C0000066 + C0000067 + 1.5 C0000068 <= 200
 R0000066: - C0000064 + C0000066 + 2 C0000067 + 1.5 C0000068 <= 100
 R0000067: + C0000059 - C0000065 <= 0
 R0000068: + 1.1 C0000058 - C0000069 <= 0
 R0000069: + C0000059 + C0000069 - C0000070 <= 0
 R0000070: - C0000060 - C0000066 + C0000071 <= 0
 R0000071: - C0000061 - C0000067 + C0000072 <= 0
 R0000072: - C0000062 - C0000068 + C0000073 <= 0
 R0000073: - C0000071 + C0000074 <= 0
 R0000074: - C0000072 + C0000075 <= 0
 R0000075: - C0000073 + C0000076 <= 0
 R0000076: - C0000074 + 2 C0000077 + C0000078 + 1.5 C0000079 <= 175
 R0000077: - C0000075 + C0000077 + 2 C0000078 + 1.5 C0000079 <= 100
 R0000078: + C0000070 - C0000076 <= 0
 R0000079: + 1.1 C0000003 - C0000080 = 0
 R0000080: + C0000004 + C0000080 - C0000081 = 0
 R0000081: - C0000005 - C0000011 + C0000082 = 0
 R0000082: - C0000006 - C0000012 + C0000083 = 0
 R0000083: - C0000007 - C0000013 + C0000084 = 0
 R0000084: - C0000082 + C0000085 <= 0
 R0000085: - C0000083 + C0000086 <= 0
 R0000086: - C0000084 + C0000087 <= 0
 R0000087: - C0000085 + 2 C0000088 + C0000089 + 1.5 C0000090 <= 200
 R0000088: - C0000086 + C0000088 + 2 C0000089 + 1.5 C0000090 <= 100
 R0000089: + C0000081 - C0000087 <= 0
 R0000090: + 1.1 C0000080 - C0000091 <= 0
 R0000091: + C0000081 + C0000091 - C0000092 <= 0
 R0000092: - C0000082 - C0000088 + C0000093 <= 0
 R0000093: - C0000083 - C0000089 + C0000094 <= 0
 R0000094: - C0000084 - C0000090 + C0000095 <= 0
 R0000095: - C0000093 + C0000096 <= 0
 R0000096: - C0000094 + C0000097 <= 0
 R0000097: - C0000095 + C0000098 <= 0
 R0000098: - C0000096 + 2 C0000099 + C0000100 + 1.5 C0000101 <= 175
 R0000099: - C0000097 + C0000099 + 2 C0000100 + 1.5 C0000101 <= 75
 R0000100: + C0000092 - C0000098 <= 0
 R0000101: + 1.1 C0000003 - C0000102 = 0
 R0000102: + C0000004 + C0000102 - C0000103 = 0
 R0000103: - C0000005 - C0000011 + C0000104 = 0
 R0000104: - C0000006 - C0000012 + C0000105 = 0
 R0000105: - C0000007 - C0000013 + C0000106 = 0
 R0000106: - C0000104 + C0000107 <= 0
 R0000107: - C0000105 + C0000108 <= 0
 R0000108: - C0000106 + C0000109 <= 0
 R0000109: - C0000107 + 2 C0000110 + C0000111 + 1.5 C0000112 <= 175
 R0000110: - C0000108 + C0000110 + 2 C0000111 + 1.5 C0000112 <= 100
 R0000111: + C0000103 - C0000109 <= 0
 R0000112: + 1.1 C0000102 - C0000113 <= 0
 R0000113: + C0000103 + C0000113 - C0000114 <= 0
 R0000114: - C0000104 - C0000110 + C0000115 <= 0
 R0000115: - C0000105 - C0000111 + C0000116 <= 0
 R0000116: - C0000106 - C0000112 + C0000117 <= 0
 R0000117: - C0000115 + C0000118 <= 0
 R0000118: - C0000116 + C0000119 <= 0
 R0000119: - C0000117 + C0000120 <= 0
 R0000120: - C0000118 + 2 C0000121 + C0000122 + 1.5 C0000123 <= 200
 R0000121: - C0000119 + C0000121 + 2 C0000122 + 1.5 C0000123 <= 100
 R0000122: + C0000114 - C0000120 <= 0
 R0000123: + 1.1 C0000003 - C0000124 = 0
 R0000124: + C0000004 + C0000124 - C0000125 = 0
 R0000125: - C0000005 - C0000011 + C0000126 = 0
 R0000126: - C0000006 - C0000012 + C0000127 = 0
 R0000127: - C0000007 - C0000013 + C0000128 = 0
 R0000128: - C0000126 + C0000129 <= 0
 R0000129: - C0000127 + C0000130 <= 0
 R0000130: - C0000128 + C0000131 <= 0
 R0000131: - C0000129 + 2 C0000132 + C0000133 + 1.5 C0000134 <= 175
 R0000132: - C0000130 + C0000132 + 2 C0000133 + 1.5 C0000134 <= 100
 R0000133: + C0000125 - C0000131 <= 0
 R0000134: + 1.1 C0000124 - C0000135 <= 0
 R0000135: + C0000125 + C0000135 - C0000136 <= 0
 R0000136: - C0000126 - C0000132 + C0000137 <= 0
 R0000137: - C0000127 - C0000133 + C0000138 <= 0
 R0000138: - C0000128 - C0000134 + C0000139 <= 0
 R0000139: - C0000137 + C0000140 <= 0
 R0000140: - C0000138 + C0000141 <= 0
 R0000141: - C0000139 + C0000142 <= 0
 R0000142: - C0000140 + 2 C0000143 + C0000144 + 1.5 C0000145 <= 200
 R0000143: - C0000141 + C0000143 + 2 C0000144 + 1.5 C0000145 <= 75
 R0000144: + C0000136 - C0000142 <= 0
 R0000145: + 1.1 C0000003 - C0000146 = 0
 R0000146: + C0000004 + C0000146 - C0000147 = 0
 R0000147: - C0000005 - C0000011 + C0000148 = 0
 R0000148: - C0000006 - C0000012 + C0000149 = 0
 R0000149: - C0000007 - C0000013 + C0000150 = 0
 R0000150: - C0000148 + C0000151 <= 0
 R0000151: - C0000149 + C0000152 <= 0
 R0000152: - C0000150 + C0000153 <= 0
 R0000153: - C0000151 + 2 C0000154 + C0000155 + 1.5 C0000156 <= 175
 R0000154: - C0000152 + C0000154 + 2 C0000155 + 1.5 C0000156 <= 100
 R0000155: + C0000147 - C0000153 <= 0
 R0000156: + 1.1 C0000146 - C0000157 <= 0
 R0000157: + C0000147 + C0000157 - C0000158 <= 0
 R0000158: - C0000148 - C0000154 + C0000159 <= 0
 R0000159: - C0000149 - C0000155 + C0000160 <= 0
 R0000160: - C0000150 - C0000156 + C0000161 <= 0
 R0000161: - C0000159 + C0000162 <= 0
 R0000162: - C0000160 + C0000163 <= 0
 R0000163: - C0000161 + C0000164 <= 0
 R0000164: - C0000162 + 2 C0000165 + C0000166 + 1.5 C0000167 <= 175
 R0000165: - C0000163 + C0000165 + 2 C0000166 + 1.5 C0000167 <= 100
 R0000166: + C0000158 - C0000164 <= 0
 R0000167: + 1.1 C0000003 - C0000168 = 0
 R0000168: + C0000004 + C0000168 - C0000169 = 0
 R0000169: - C0000005 - C0000011 + C0000170 = 0
 R0000170: - C0000006 - C0000012 + C0000171 = 0
 R0000171: - C0000007 - C0000013 + C0000172 = 0
 R0000172: - C0000170 + C0000173 <= 0
 R0000173: - C0000171 + C0000174 <= 0
 R0000174: - C0000172 + C0000175 <= 0
 R0000175: - C0000173 + 2 C0000176 + C0000177 + 1.5 C0000178 <= 175
 R0000176: - C0000174 + C0000176 + 2 C0000177 + 1.5 C0000178 <= 100
 R0000177: + C0000169 - C0000175 <= 0
 R0000178: + 1.1 C0000168 - C0000179 <= 0
 R0000179: + C0000169 + C0000179 - C0000180 <= 0
 R0000180: - C0000170 - C0000176 + C0000181 <= 0
 R0000181: - C0000171 - C0000177 + C0000182 <= 0
 R0000182: - C0000172 - C0000178 + C0000183 <= 0
 R0000183: - C0000181 + C0000184 <= 0
 R0000184: - C0000182 + C0000185 <= 0
 R0000185: - C0000183 + C0000186 <= 0
 R0000186: - C0000184 + 2 C0000187 + C0000188 + 1.5 C0000189 <= 175
 R0000187: - C0000185 + C0000187 + 2 C0000188 + 1.5 C0000189 <= 75
 R0000188: + C0000180 - C0000186 <= 0

End
